10 40 11
1 1 1 0
1 2 2 3
1 3 5 6 4
1 4 7 10 8 9
1 5 14 12 11 13
1 6 15 17 18 16
1 7 21 22 23 19 20
1 8 24 25 26 28 27
1 9 29 30 32 31 33
1 10 39 34 38 35 37 36
1
1
1
1
1
1
1
1
1
1
1
1
1
1
1
1
1
1
1
1
1
1
1
1
1
1
1
1
1
1
1
1
1
1
1
1
1
1
1
1